     Program PWSCF v.6.0 (svn rev. 13079) starts on 25Apr2017 at 22:21: 5

     Current dimensions of program PWSCF are:
     Max number of different atomic species (ntypx) = 10
     Max number of k-points (npk) =  40000
     Max angular momentum in pseudopotentials (lmaxx) =  3

     gamma-point specific algorithms are used

     bravais-lattice index     =            0
     lattice parameter (alat)  =       1.8897  a.u.
     unit-cell volume          =   16641.6691 (a.u.)^3
     number of atoms/cell      =          248
     number of atomic types    =            1
     number of electrons       =       992.00
     number of Kohn-Sham states=          501
     kinetic-energy cutoff     =      30.0000  Ry
     charge density cutoff     =     120.0000  Ry
     convergence threshold     =      1.0E-08
     mixing beta               =       0.3000
     number of iterations used =            8  plain     mixing
     Exchange-correlation      = LDA ( 1  1  0  0 0 0)
     nstep                     =           50

     celldm(1)=   1.889700  celldm(2)=   0.000000  celldm(3)=   0.000000
     celldm(4)=   0.000000  celldm(5)=   0.000000  celldm(6)=   0.000000

     crystal axes: (cart. coord. in units of alat)
               a(1) = (  20.466990   0.000000   0.000000 )
               a(2) = ( -10.233490  17.724900   0.000000 )
               a(3) = (   0.000000   0.000000   6.797990 )

     reciprocal axes: (cart. coord. in units 2 pi/alat)
               b(1) = (  0.048859  0.028209  0.000000 )
               b(2) = (  0.000000  0.056418  0.000000 )
               b(3) = (  0.000000  0.000000  0.147102 )

     PseudoPot. # 1 for  C read from file:
     ./C.pz-nc.UPF
     MD5 check sum: a91ed244500615f7cb1ba4954399d57e
     Pseudo is Norm-conserving, Zval =  4.0
     Generated using "atomic" code by A. Dal Corso  v.5.0.99 svn rev. 10869
     Using radial grid of 1073 points,  1 beta functions with:
                l(1) =   1

     atomic species   valence    mass     pseudopotential
        C              4.00    12.01000      C( 1.00)

     No symmetry found

   Cartesian axes

     site n.     atom                  positions (alat units)
         1           C   tau(   1) = (   0.0232973   1.5113552   2.7540693  )
         2           C   tau(   2) = (   1.3127847   0.7668825   6.1924652  )
         3           C   tau(   3) = (   0.0319505   0.0414094   2.7506511  )
         4           C   tau(   4) = (   0.0354351   0.0394023   6.1959289  )
         5           C   tau(   5) = (   2.5780513   1.4897620   2.7367468  )
         6           C   tau(   6) = (   3.8716093   0.7640083   6.1655521  )
         7           C   tau(   7) = (   2.5872999   0.0290461   2.7375981  )
         8           C   tau(   8) = (   2.5960349   0.0316992   6.1789269  )
         9           C   tau(   9) = (   5.1504501   1.4821941   2.7298762  )
        10           C   tau(  10) = (   6.4293668   0.7639775   6.1655635  )
        11           C   tau(  11) = (   5.1504603   0.0213799   2.7321472  )
        12           C   tau(  12) = (   5.1504885   0.0270724   6.1627534  )
        13           C   tau(  13) = (   7.7228646   1.4896916   2.7367394  )
        14           C   tau(  14) = (   8.9881829   0.7667996   6.1925206  )
        15           C   tau(  15) = (   7.7136213   0.0289924   2.7375927  )
        16           C   tau(  16) = (   7.7049480   0.0316366   6.1789693  )
        17           C   tau(  17) = (  10.2776431   1.5112786   2.7541339  )
        18           C   tau(  18) = (  11.5442432   0.7776024   6.2045844  )
        19           C   tau(  19) = (  10.2689834   0.0413268   2.7506953  )
        20           C   tau(  20) = (  10.2655294   0.0393174   6.1960210  )
        21           C   tau(  21) = (  12.8328597   1.5216257   2.7720002  )
        22           C   tau(  22) = (  14.1031795   0.7884633   6.2113397  )
        23           C   tau(  23) = (  12.8295429   0.0490427   2.7676356  )
        24           C   tau(  24) = (  12.8208488   0.0516616   6.2093216  )
        25           C   tau(  25) = (  15.3839474   1.5212036   2.7816267  )
        26           C   tau(  26) = (  16.6647302   0.7884917   6.2112709  )
        27           C   tau(  27) = (  15.3839471   0.0536667   2.7838273  )
        28           C   tau(  28) = (  15.3839575   0.0593220   6.2148190  )
        29           C   tau(  29) = (  17.9350508   1.5216842   2.7718955  )
        30           C   tau(  30) = (  19.2236963   0.7776709   6.2044764  )
        31           C   tau(  31) = (  17.9383671   0.0490961   2.7675706  )
        32           C   tau(  32) = (  17.9470756   0.0517191   6.2092175  )
        33           C   tau(  33) = (  -1.2585602   3.7259187   2.7809585  )
        34           C   tau(  34) = (   0.0167273   2.9685663   6.2100549  )
        35           C   tau(  35) = (  -1.2550069   2.2550909   2.7675232  )
        36           C   tau(  36) = (  -1.2529098   2.2462190   6.2092345  )
        37           C   tau(  37) = (   1.2834725   3.7028138   2.7727086  )
        38           C   tau(  38) = (   2.5806001   2.9539409   6.1739838  )
        39           C   tau(  39) = (   1.2959218   2.2343964   2.7453758  )
        40           C   tau(  40) = (   1.3026547   2.2305136   6.2012927  )
        41           C   tau(  41) = (   3.8570553   3.6574367   2.7879549  )
        42           C   tau(  42) = (   5.1504964   2.9815621   6.0871281  )
        43           C   tau(  43) = (   3.8598002   2.2092653   2.7360400  )
        44           C   tau(  44) = (   3.8665155   2.2361126   6.1453061  )
        45           C   tau(  45) = (   6.4438514   3.6573665   2.7879413  )
        46           C   tau(  46) = (   7.7204161   2.9538659   6.1739763  )
        47           C   tau(  47) = (   6.4411056   2.2092126   2.7360282  )
        48           C   tau(  48) = (   6.4344694   2.2360720   6.1453051  )
        49           C   tau(  49) = (   9.0174652   3.7027101   2.7727140  )
        50           C   tau(  50) = (  10.2842527   2.9684999   6.2100910  )
        51           C   tau(  51) = (   9.0050125   2.2343041   2.7453981  )
        52           C   tau(  52) = (   8.9983195   2.2304423   6.2013125  )
        53           C   tau(  53) = (  11.5594849   3.7258474   2.7810366  )
        54           C   tau(  54) = (  12.8331079   2.9883278   6.2113274  )
        55           C   tau(  55) = (  11.5559247   2.2550086   2.7676255  )
        56           C   tau(  56) = (  11.5538781   2.2461489   6.2093182  )
        57           C   tau(  57) = (  14.1080011   3.7311988   2.7816379  )
        58           C   tau(  58) = (  15.3839595   2.9945284   6.2095179  )
        59           C   tau(  59) = (  14.1069023   2.2572147   2.7799307  )
        60           C   tau(  60) = (  14.1067842   2.2571230   6.2098283  )
[...]
       234           C   tau( 234) = (   2.5781198  16.3158435   6.2100804  )
       235           C   tau( 235) = (   1.3026927  15.5751135   2.7454333  )
       236           C   tau( 236) = (   1.2959896  15.5712045   6.2013075  )
       237           C   tau( 237) = (   3.8716102  17.0416381   2.7810578  )
       238           C   tau( 238) = (   5.1504635  16.3233836   6.2170092  )
       239           C   tau( 239) = (   3.8665205  15.5695125   2.8013970  )
       240           C   tau( 240) = (   3.8598415  15.5963274   6.2107965  )
       241           C   tau( 241) = (   6.4293162  17.0416716   2.7810341  )
       242           C   tau( 242) = (   7.7228296  16.3159055   6.2099987  )
       243           C   tau( 243) = (   6.4344266  15.5695395   2.8013971  )
       244           C   tau( 244) = (   6.4411090  15.5963775   6.2107632  )
       245           C   tau( 245) = (   8.9881106  17.0388451   2.7541063  )
       246           C   tau( 246) = (  10.2776105  16.2943567   6.1924334  )
       247           C   tau( 247) = (   8.9982515  15.5751750   2.7454296  )
       248           C   tau( 248) = (   9.0049858  15.5712908   6.2012243  )

     number of k points=     1  Marzari-Vanderbilt smearing, width (Ry)=  0.0050
                       cart. coord. in units 2pi/alat
        k(    1) = (   0.0000000   0.0000000   0.0000000), wk =   2.0000000

     Initial potential from superposition of free atoms

     starting charge  991.99132, renormalised to  992.00000

     negative rho (up, down):  9.463E-05 0.000E+00
     Starting wfc are  992 randomized atomic wfcs

     Self-consistent Calculation

     iteration #  1     ecut=    30.00 Ry     beta=0.30
     Davidson diagonalization with overlap
     ethr =  1.00E-02,  avg # of iterations =  2.0

     negative rho (up, down):  5.444E-05 0.000E+00

     total energy              =   -2799.71418660 Ry
     Harris-Foulkes estimate   =   -2804.31385077 Ry
     estimated scf accuracy    <      14.55695123 Ry

[...]

     End of self-consistent calculation

          k = 0.0000 0.0000 0.0000 ( 23151 PWs)   bands (ev):

   -13.5654 -13.3636 -13.3635 -13.1556 -13.1271 -13.1270 -13.1012 -13.0049
   -12.7650 -12.7650 -12.7475 -12.7475 -12.7415 -12.5765 -12.5765 -12.5648
   -12.5647 -12.5004 -12.4303 -12.2629 -12.1848 -12.1847 -12.1098 -12.0893
   -12.0893 -12.0561 -12.0560 -12.0441 -11.9557 -11.9556 -11.8536 -11.7970
   -11.7281 -11.6918 -11.6918 -11.6155 -11.5045 -11.5045 -11.2961 -11.2960
   -11.1220 -11.0328 -11.0327 -11.0192 -11.0192 -10.9872 -10.9642 -10.9641
   -10.8519 -10.7441 -10.7412 -10.7412 -10.7330 -10.7329 -10.6982 -10.6911
   -10.5404 -10.5404 -10.5402 -10.5271 -10.5271 -10.3835 -10.3134 -10.3134
   -10.2549 -10.2549 -10.0503 -10.0189  -9.9894  -9.8888  -9.8888  -9.8229
    -9.6768  -9.6768  -9.3396  -9.3396  -9.3362  -9.3362  -9.2639  -9.2639
    -9.2412  -9.1968  -9.1609  -9.1428  -9.1428  -9.0589  -9.0545  -9.0545
    -9.0360  -9.0153  -9.0153  -8.9946  -8.9462  -8.9462  -8.8314  -8.8314
    -8.8300  -8.7858  -8.7858  -8.7478  -8.7478  -8.6944  -8.6238  -8.6117
    -8.5774  -8.5774  -8.5583  -8.4886  -8.4886  -8.4131  -7.8813  -7.8812
    -7.8766  -7.8048  -7.8048  -7.7840  -7.6208  -7.6208  -7.5770  -7.5770
    -7.4254  -7.2466  -7.2466  -7.1207  -7.0586  -7.0586  -6.9758  -6.9758
    -6.9088  -6.8244  -6.7408  -6.7408  -6.6594  -6.5804  -6.4175  -6.4175
    -6.3855  -6.3656  -6.3656  -6.2551  -6.2551  -6.2457  -6.2456  -6.2256
    -6.1763  -6.1489  -6.1440  -6.1228  -6.1228  -6.0922  -6.0740  -6.0740
    -5.9747  -5.9747  -5.8959  -5.8959  -5.8833  -5.7682  -5.7682  -5.6135
    -5.5719  -5.5097  -5.5097  -5.4251  -5.4251  -5.3349  -5.0662  -5.0662
    -4.9257  -4.8628  -4.8204  -4.8067  -4.8067  -4.7854  -4.7854  -4.7308
    -4.7308  -4.7290  -4.6645  -4.6550  -4.6550  -4.5844  -4.5844  -4.4682
    -4.4221  -4.2921  -4.2921  -3.9127  -3.9127  -3.8023  -3.5875  -3.5875
    -3.5850  -3.5589  -3.5589  -3.4754  -3.4175  -3.4175  -3.4034  -3.3561
    -3.3561  -3.3466  -3.3341  -3.3341  -3.2987  -3.2167  -3.1537  -3.1371
    -3.1219  -3.1219  -3.0875  -3.0875  -3.0309  -3.0309  -3.0301  -3.0301
    -3.0183  -2.9970  -2.9259  -2.9259  -2.8772  -2.8772  -2.8752  -2.7728
    -2.7358  -2.6720  -2.6720  -2.6260  -2.5927  -2.5927  -2.4745  -2.4745
[...]
C        0.628122483   0.879101172   0.929318142
C        0.794976259   0.961364718   0.394468542
C        0.837353789   0.920344008   0.929903356
C        0.753797196   0.878347295   0.398494170
C        0.754327711   0.879534608   0.929713081
C        0.919871484   0.961287375   0.389591140
C        0.961797627   0.919362122   0.926465939
C        0.878904502   0.878572792   0.388464669
C        0.879082623   0.878395842   0.927619727

     Writing output data file C.save
     Check: negative starting charge=   -0.000106
     NEW-OLD atomic charge density approx. for the potential
     Check: negative starting charge=   -0.000106

     Self-consistent Calculation

[...]

     Threshold (ethr) on eigenvalues was too large:
     Diagonalizing with lowered threshold

     Davidson diagonalization with overlap
     ethr =  1.75E-10,  avg # of iterations =  5.0

[...]

     total energy              =   -2798.54087580 Ry
     Harris-Foulkes estimate   =   -2798.54087580 Ry
     estimated scf accuracy    <       0.00000002 Ry

     iteration # 10     ecut=    30.00 Ry     beta=0.30
     Davidson diagonalization with overlap
     ethr =  1.33E-12,  avg # of iterations =  4.0

     End of self-consistent calculation

          k = 0.0000 0.0000 0.0000 ( 23151 PWs)   bands (ev):

   -13.4829 -13.2536 -13.2535 -13.1039 -13.1039 -13.1025 -13.0759 -13.0049
   -12.7288 -12.7288 -12.7106 -12.7099 -12.7099 -12.5256 -12.5255 -12.4983
   -12.4983 -12.4517 -12.3937 -12.2624 -12.1644 -12.1644 -12.0888 -12.0888
   -12.0713 -12.0261 -12.0217 -12.0216 -11.9213 -11.9213 -11.8181 -11.7720
   -11.7052 -11.6565 -11.6565 -11.4811 -11.4758 -11.4758 -11.2449 -11.2449
   -11.0877 -11.0164 -11.0163 -11.0003 -11.0003 -10.9968 -10.9683 -10.9682
   -10.8443 -10.7070 -10.7059 -10.7058 -10.6940 -10.6940 -10.6569 -10.6563
   -10.5409 -10.5194 -10.5193 -10.4959 -10.4959 -10.3588 -10.2792 -10.2792
   -10.2504 -10.2503 -10.0221  -9.9712  -9.9445  -9.8532  -9.8531  -9.8177
    -9.6408  -9.6408  -9.3251  -9.3251  -9.3093  -9.3092  -9.2517  -9.2517
    -9.2266  -9.1943  -9.1639  -9.1137  -9.1137  -9.0504  -9.0382  -9.0381
    -9.0046  -8.9853  -8.9853  -8.9643  -8.9173  -8.9172  -8.8062  -8.8061
    -8.8030  -8.7871  -8.7871  -8.7326  -8.7326  -8.6670  -8.6245  -8.5784
    -8.5700  -8.5699  -8.5463  -8.4706  -8.4705  -8.3957  -7.8758  -7.8758
    -7.8725  -7.7763  -7.7763  -7.7705  -7.5986  -7.5986  -7.5608  -7.5607
    -7.4204  -7.2318  -7.2318  -7.1047  -7.0239  -7.0238  -6.9579  -6.9578
    -6.8981  -6.8079  -6.7306  -6.7306  -6.6384  -6.5402  -6.3878  -6.3878
    -6.3722  -6.3593  -6.3593  -6.2430  -6.2430  -6.2313  -6.2313  -6.2034
    -6.1574  -6.1335  -6.1105  -6.1048  -6.1047  -6.0638  -6.0634  -6.0634
    -5.9513  -5.9513  -5.8811  -5.8810  -5.8715  -5.7577  -5.7577  -5.5879
    -5.5615  -5.5060  -5.5060  -5.4168  -5.4168  -5.3247  -5.0531  -5.0531
    -4.8969  -4.8365  -4.8210  -4.7829  -4.7829  -4.7680  -4.7680  -4.7222
    -4.7116  -4.7115  -4.6493  -4.6442  -4.6442  -4.5747  -4.5746  -4.4385
    -4.4087  -4.2846  -4.2846  -3.9021  -3.9020  -3.7946  -3.5729  -3.5680
    -3.5680  -3.5247  -3.5247  -3.4708  -3.3887  -3.3874  -3.3874  -3.3177
    -3.3177  -3.3123  -3.3034  -3.3034  -3.2753  -3.1982  -3.1444  -3.1300
    -3.1100  -3.1100  -3.0765  -3.0764  -3.0241  -3.0241  -3.0150  -3.0150
    -2.9985  -2.9894  -2.9222  -2.9222  -2.8581  -2.8580  -2.8491  -2.7508
    -2.7169  -2.6471  -2.6471  -2.5943  -2.5756  -2.5756  -2.4542  -2.4542
    -2.4134  -2.1871  -2.1209  -2.1209  -1.9565  -1.9565  -1.9544  -1.8655
    -1.8655  -1.8478  -1.8478  -1.8094  -1.7569  -1.7147  -1.7146  -1.5885
    -1.5885  -1.5618  -1.4543  -1.4360  -1.4359  -1.4190  -1.3399  -1.3398
    -1.3092  -1.3091  -1.2973  -1.2957  -1.2956  -1.2914  -1.2327  -1.2327
    -1.2126  -1.2110  -1.1964  -1.1964  -1.1757  -1.1757  -1.1705  -1.1702
    -1.1023  -1.1023  -1.0663  -1.0615  -1.0577  -1.0202  -1.0202  -0.9415
    -0.9415  -0.8390  -0.8389  -0.8066  -0.7985  -0.7587  -0.7587  -0.7405
    -0.7178  -0.7041  -0.7041  -0.6424  -0.6423  -0.5698  -0.5698  -0.5662
    -0.5580  -0.5580  -0.5381  -0.5089  -0.4840  -0.4839  -0.4544  -0.4486
    -0.4485  -0.4325  -0.4325  -0.4200  -0.4200  -0.4104  -0.3947  -0.3644
    -0.3643  -0.3615  -0.3170  -0.2787  -0.2785  -0.2629  -0.2166  -0.2165
    -0.1291  -0.1211  -0.1211  -0.0742  -0.0742  -0.0640  -0.0326  -0.0101
    -0.0101   0.0443   0.0504   0.0505   0.0869   0.0924   0.0924   0.1471
     0.1693   0.1694   0.2192   0.2192   0.2932   0.2932   0.3073   0.3209
     0.3754   0.3755   0.4116   0.4914   0.5510   0.5784   0.6091   0.6150
     0.6151   0.6195   0.6195   0.6697   0.6987   0.6988   0.7333   0.7333
     0.8887   0.8887   0.9794   1.0013   1.0252   1.0252   1.0476   1.0543
     1.0544   1.0646   1.0747   1.0857   1.0882   1.0883   1.1033   1.1034
     1.1084   1.1084   1.1308   1.1308   1.1369   1.1763   1.1914   1.1915
     1.2022   1.2023   1.2082   1.2082   1.2302   1.2302   1.2478   1.3413
     1.3753   1.4856   1.5044   1.5044   1.5408   1.5657   1.5657   1.5771
     1.5771   1.6089   1.6592   1.7150   1.7150   1.8387   1.8387   1.9028
     1.9864   1.9864   2.1214   2.1215   2.1307   2.1750   2.2246   2.2246
     2.3927   2.3927   2.4050   2.4104   2.4224   2.4280   2.4280   2.4691
     2.4909   2.4910   2.5009   2.5010   2.5108   2.5748   2.5749   2.6064
     2.6105   2.6174   2.6175   2.6641   2.6897   2.6898   2.7540   2.7540
     2.7701   2.7916   2.7917   2.8012   2.8631   2.8801   2.8802   2.9450
     2.9450   2.9779   2.9997   2.9998   3.0427   3.0427   3.1182   3.2011
     3.2185   3.3661   3.3661   3.5089   3.5089   3.5822   3.5823   3.6982
     3.6982   3.9019   4.0407   4.0408   4.0664   4.0664   4.0784   4.0819
     4.0837   4.0837   4.0965   4.1085   4.1086   4.1267   4.1643   4.1643
     4.1843   4.3553   4.3883   4.3884   4.4619   4.4620   4.5026   4.5961
     4.7751   4.7752   5.0076   5.0078   5.0408   5.4698   5.7136   5.7137
     5.9983   5.9984   6.4243   6.5693   6.6170

     the Fermi energy is     5.7763 ev

!    total energy              =   -2798.54087580 Ry
     Harris-Foulkes estimate   =   -2798.54087580 Ry
     estimated scf accuracy    <          1.9E-09 Ry

     convergence has been achieved in  10 iterations

     Forces acting on atoms (Ry/au):

     atom    1 type  1   force =    -0.00001339   -0.00001974   -0.00001643
     atom    2 type  1   force =    -0.00001109   -0.00002015    0.00002003
     atom    3 type  1   force =    -0.00003117   -0.00000328   -0.00004575
     atom    4 type  1   force =     0.00001511   -0.00003372    0.00005162
     atom    5 type  1   force =    -0.00002040   -0.00002307    0.00000369
     atom    6 type  1   force =     0.00000120   -0.00000562    0.00001819
     atom    7 type  1   force =    -0.00002253    0.00001608    0.00002227
     atom    8 type  1   force =    -0.00000454   -0.00001239    0.00002706
     atom    9 type  1   force =    -0.00001444   -0.00001652   -0.00000983
     atom   10 type  1   force =    -0.00000632    0.00001467    0.00001257
     atom   11 type  1   force =    -0.00002670    0.00003081    0.00001330
     atom   12 type  1   force =    -0.00000857   -0.00005727   -0.00004622
     atom   13 type  1   force =    -0.00001867   -0.00000031   -0.00000006
     atom   14 type  1   force =    -0.00001363    0.00004803    0.00003092
     atom   15 type  1   force =    -0.00000023    0.00003069    0.00003155
     atom   16 type  1   force =    -0.00001243    0.00001791    0.00001256
     atom   17 type  1   force =    -0.00004069    0.00003546   -0.00002702
     atom   18 type  1   force =    -0.00003762   -0.00000272    0.00001677
     atom   19 type  1   force =     0.00001541    0.00003910   -0.00004521
     atom   20 type  1   force =    -0.00003995    0.00000537    0.00005066
     atom   21 type  1   force =    -0.00005073   -0.00001818    0.00000514
     atom   22 type  1   force =    -0.00002767    0.00002395   -0.00004203
     atom   23 type  1   force =    -0.00000451    0.00001796   -0.00002291
     atom   24 type  1   force =    -0.00002456   -0.00001632   -0.00001640
     atom   25 type  1   force =     0.00000136   -0.00001067   -0.00001257
     atom   26 type  1   force =    -0.00000771   -0.00001765   -0.00002112
     atom   27 type  1   force =    -0.00000862    0.00006730    0.00004686
     atom   28 type  1   force =    -0.00001760   -0.00002777   -0.00000973
     atom   29 type  1   force =     0.00003822   -0.00004023    0.00000474
     atom   30 type  1   force =     0.00001627   -0.00003609    0.00001588
     atom   31 type  1   force =    -0.00000430   -0.00001100   -0.00000861
     atom   32 type  1   force =     0.00000538   -0.00002362   -0.00002612
     atom   33 type  1   force =    -0.00000433    0.00000009   -0.00001757
     atom   34 type  1   force =    -0.00000931   -0.00002745   -0.00000267
     atom   35 type  1   force =    -0.00000792   -0.00001154   -0.00002280
     atom   36 type  1   force =     0.00002491   -0.00001077   -0.00001690
     atom   37 type  1   force =    -0.00000524    0.00000137   -0.00002501
     atom   38 type  1   force =    -0.00000019   -0.00000312    0.00002208
     atom   39 type  1   force =     0.00001286   -0.00000190    0.00001665
     atom   40 type  1   force =    -0.00000581    0.00000990   -0.00001535
     atom   41 type  1   force =     0.00001637   -0.00001764   -0.00000277
     atom   42 type  1   force =    -0.00001423    0.00000856    0.00000933
     atom   43 type  1   force =    -0.00001072   -0.00000566   -0.00000622
     atom   44 type  1   force =    -0.00000839   -0.00001162    0.00003732
     atom   45 type  1   force =     0.00000892    0.00001387   -0.00000912
     atom   46 type  1   force =    -0.00001859    0.00002579    0.00001555
     atom   47 type  1   force =    -0.00003185    0.00001583   -0.00003438
     atom   48 type  1   force =    -0.00000639    0.00000291    0.00005367
     atom   49 type  1   force =    -0.00001972    0.00004069   -0.00001789
     atom   50 type  1   force =     0.00000875    0.00001618    0.00000049
     atom   51 type  1   force =    -0.00005124    0.00003382    0.00000348
     atom   52 type  1   force =    -0.00001086    0.00007017   -0.00000231
     atom   53 type  1   force =    -0.00001373    0.00001953   -0.00001249
     atom   54 type  1   force =    -0.00001147    0.00000460   -0.00002178
     atom   55 type  1   force =    -0.00000783    0.00001739   -0.00000851
     atom   56 type  1   force =    -0.00002568    0.00001727   -0.00002609
     atom   57 type  1   force =    -0.00000428    0.00000409   -0.00001256
     atom   58 type  1   force =    -0.00000339   -0.00000530   -0.00005111
     atom   59 type  1   force =     0.00000594    0.00000930   -0.00003389
     atom   60 type  1   force =    -0.00001616    0.00002366   -0.00004405
[...]
     atom  234 type  1   force =    -0.00001851    0.00002831   -0.00000335
     atom  235 type  1   force =    -0.00000173   -0.00000342    0.00001588
     atom  236 type  1   force =     0.00000945   -0.00000846   -0.00001484
     atom  237 type  1   force =     0.00000169   -0.00000297   -0.00001760
     atom  238 type  1   force =    -0.00001834    0.00002330    0.00001040
     atom  239 type  1   force =    -0.00001066    0.00001713   -0.00004233
     atom  240 type  1   force =    -0.00000553   -0.00001839    0.00000390
     atom  241 type  1   force =    -0.00001007   -0.00002765   -0.00001246
     atom  242 type  1   force =    -0.00002510   -0.00000344    0.00000059
     atom  243 type  1   force =    -0.00000654    0.00000633   -0.00005830
     atom  244 type  1   force =    -0.00003002   -0.00003519    0.00003223
     atom  245 type  1   force =    -0.00002018   -0.00005790   -0.00002721
     atom  246 type  1   force =    -0.00003845   -0.00003924    0.00003049
     atom  247 type  1   force =     0.00000336   -0.00005308    0.00000397
     atom  248 type  1   force =    -0.00004996   -0.00003624   -0.00000237

     Total force =     0.000694     Total SCF correction =     0.000126
     SCF correction compared to forces is large: reduce conv_thr to get better values

     entering subroutine stress ...

          total   stress  (Ry/bohr**3)                   (kbar)     P= -720.83
  -0.00565369   0.00000000   0.00000002       -831.69      0.00      0.00
   0.00000000  -0.00565359  -0.00000001          0.00   -831.67      0.00
   0.00000002  -0.00000001  -0.00339313          0.00      0.00   -499.15

     Damped Dynamics: convergence achieved in  47 steps

     End of damped dynamics calculation

     Final energy =   -2798.5408757954 Ry

Begin final coordinates
     new unit-cell volume =  16641.66907 a.u.^3 (  2466.04090 Ang^3 )

CELL_PARAMETERS (alat=  1.88970000)
  20.466990000   0.000000000   0.000000000
 -10.233490000  17.724900000   0.000000000
   0.000000000   0.000000000   6.797990000

ATOMIC_POSITIONS (crystal)
C        0.044059607   0.085567664   0.389508490
C        0.086075183   0.043547802   0.926547134
C        0.002909460   0.002518158   0.388456760
C        0.003027153   0.002399342   0.927614239
C        0.168303936   0.084557122   0.386358827
C        0.210963907   0.043203574   0.921756162
C        0.127392444   0.001954699   0.385480120
C        0.127984625   0.001953727   0.924155116
C        0.293619110   0.084060673   0.384948708
C        0.335879172   0.043186398   0.921505267
C        0.252338124   0.001474884   0.384072920
C        0.252527960   0.001575460   0.921273333
C        0.419293737   0.084209531   0.386193667
C        0.460852358   0.043263676   0.926464937
C        0.377742410   0.001720834   0.385402889
C        0.377466908   0.001755698   0.923982022
C        0.544716429   0.085192569   0.389593368
C        0.585956227   0.043729760   0.929657839
C        0.502908274   0.002151694   0.388454607
C        0.502659658   0.002032058   0.927614174
C        0.669900565   0.085686876   0.392564450
C        0.711198898   0.044300335   0.931703591
C        0.628313178   0.002596197   0.391839626
C        0.627705313   0.002595647   0.930596775
C        0.794591559   0.085794211   0.394134891
C        0.836388535   0.044361523   0.931737461
C        0.753235355   0.002975767   0.394668020
C        0.753132336   0.003074009   0.931987857
C        0.919377624   0.085974202   0.392562459
C        0.961329790   0.043997549   0.929654836
C        0.877993348   0.002795282   0.392011762
C        0.878290429   0.002830089   0.930674194
C        0.043716199   0.210455047   0.394218813
C        0.085067099   0.167792295   0.929732475
C        0.002466151   0.127477267   0.391841166
C        0.002464608   0.126881668   0.930594750
C        0.167650224   0.209683761   0.393794443
C        0.210190370   0.167136778   0.922282302
C        0.126711478   0.126569857   0.388262909
C        0.127077214   0.126199635   0.927816982
C        0.292211129   0.207371643   0.396715342
C        0.336082040   0.168373170   0.906733471
C        0.251303809   0.125449018   0.386790860
C        0.252442987   0.126400809   0.917690072
C        0.418006304   0.206909137   0.396093064
C        0.460724836   0.166890750   0.922358140
C        0.377076511   0.125019281   0.386396667
C        0.377715973   0.126203451   0.917536048
C        0.544843500   0.208944373   0.393736799
C        0.586277776   0.167705522   0.929909977
C        0.502970341   0.126158324   0.388467152
C        0.502599908   0.125977205   0.927622525
C        0.669690971   0.210086559   0.394477603
C        0.711263410   0.168672173   0.931739498
C        0.628104916   0.127071347   0.392017075
C        0.627829407   0.126770455   0.930678701
C        0.794502790   0.210468839   0.394137365
C        0.836116767   0.168944677   0.932183152
C        0.752913315   0.127247978   0.393791115
C        0.752839747   0.127293361   0.931986326
[...]
C        0.586012703   0.919994822   0.929734701
C        0.503159926   0.878352585   0.388254811
C        0.502408557   0.877984071   0.927813686
C        0.670043014   0.961348632   0.394217983
C        0.711829825   0.920491340   0.931144930
C        0.628324984   0.878149769   0.398332611
C        0.628122483   0.879101172   0.929318142
C        0.794976259   0.961364718   0.394468542
C        0.837353789   0.920344008   0.929903356
C        0.753797196   0.878347295   0.398494170
C        0.754327711   0.879534608   0.929713081
C        0.919871484   0.961287375   0.389591140
C        0.961797627   0.919362122   0.926465939
C        0.878904502   0.878572792   0.388464669
C        0.879082623   0.878395842   0.927619727
End final coordinates

     Writing output data file C.save

     General routines

     Parallel routines

   This run was terminated on:   0:43:39  26Apr2017

   JOB DONE.